
Gurobi 13.0.2 (win64) logging started Thu Jul 23 06:47:41 2026

Set parameter LogFile to value "E:\codes\ExactEBRP\results\gf_cplex_equivalent_gurobi_replica_round28\runs\stage2__moderate_seed5302__c3_replica__300s\external\native_logs\R.0.0.0.0.1.1_lp.gurobi.log"
Gurobi Optimizer version 13.0.2 build v13.0.2rc1 (win64 - Windows 10.0 (19045.2))

CPU model: 12th Gen Intel(R) Core(TM) i7-12700KF, instruction set [SSE2|AVX|AVX2]
Thread count: 12 physical cores, 20 logical processors, using up to 1 threads

Non-default parameters:
TimeLimit  2.3087880919999998e+02
MIPGap  0
MIPGapAbs  0
LogToConsole  0
Threads  1

Optimize a model with 11931 rows, 3382 columns and 67404 nonzeros (Min)
Model fingerprint: 0x432b8405
Model has 21 linear objective coefficients
Coefficient statistics:
  Matrix range     [5e-03, 2e+04]
  Objective range  [9e-03, 1e+00]
  Bounds range     [5e-03, 2e+02]
  RHS range        [5e-03, 5e+04]

Presolve removed 455 rows and 102 columns
Presolve time: 0.04s
Presolved: 11476 rows, 3469 columns, 66322 nonzeros

Iteration    Objective       Primal Inf.    Dual Inf.      Time
       0    4.9563437e-03   1.581500e+02   0.000000e+00      0s
    3554    1.6460947e-02   0.000000e+00   0.000000e+00      0s

Solved in 3554 iterations and 0.28 seconds (0.84 work units)
Optimal objective  1.646094704e-02

User-callback calls 3698, time in user-callback 0.00 sec
